NAME: tsp5_30
COMMENT: 5-tsp problem (Padberg/Rinaldi)
TYPE: TSP
DIMENSION: 5
EDGE_WEIGHT_TYPE : EUC_2D
NODE_COORD_SECTION
1.00 1.83 39.69
2.00 10.56 20.43
3.00 6.43 4.60
4.00 0.07 4.97
5.00 3.45 34.26
